parameters: eil33-2_10_1_3_0.500000 

SCIP version 6.0.1 [precision: 8 byte] [memory: block] [mode: optimized] [LP solver: SoPlex 4.0.1] [GitHash: a27ecc0]
Copyright (C) 2002-2019 Konrad-Zuse-Zentrum fuer Informationstechnik Berlin (ZIB)

read problem <instances/eil33-2.mps> ...

original problem has 4516 variables (4516 bin, 0 int, 0 impl, 0 cont) and 32 constraints
read solution <10solution/eil33-2_1.sol> ...

check the feasibility of <10solution/eil33-2_1.sol> for problem <instances/eil33-2.mps> ...

The solution <10solution/eil33-2_1.sol> is optimal to <instances/eil33-2.mps> 


real	0m0.028s
user	0m0.021s
sys	0m0.007s
